c colouring generated by benchmark framework
p edge 125 3891
v 1 0
v 2 5
v 3 5
v 4 7
v 5 20
v 6 6
v 7 0
v 8 10
v 9 13
v 10 22
v 11 24
v 12 5
v 13 4
v 14 6
v 15 12
v 16 11
v 17 9
v 18 22
v 19 20
v 20 23
v 21 8
v 22 7
v 23 0
v 24 1
v 25 3
v 26 21
v 27 24
v 28 4
v 29 25
v 30 1
v 31 13
v 32 10
v 33 19
v 34 10
v 35 11
v 36 8
v 37 21
v 38 5
v 39 8
v 40 10
v 41 25
v 42 0
v 43 14
v 44 9
v 45 6
v 46 9
v 47 11
v 48 0
v 49 9
v 50 11
v 51 4
v 52 16
v 53 7
v 54 16
v 55 9
v 56 18
v 57 1
v 58 16
v 59 1
v 60 1
v 61 12
v 62 17
v 63 3
v 64 19
v 65 10
v 66 3
v 67 19
v 68 4
v 69 15
v 70 18
v 71 19
v 72 18
v 73 21
v 74 18
v 75 15
v 76 3
v 77 14
v 78 7
v 79 2
v 80 14
v 81 9
v 82 2
v 83 7
v 84 1
v 85 15
v 86 1
v 87 3
v 88 5
v 89 23
v 90 11
v 91 19
v 92 14
v 93 13
v 94 8
v 95 14
v 96 5
v 97 10
v 98 23
v 99 5
v 100 2
v 101 18
v 102 6
v 103 17
v 104 2
v 105 17
v 106 24
v 107 23
v 108 6
v 109 0
v 110 11
v 111 4
v 112 0
v 113 22
v 114 2
v 115 6
v 116 15
v 117 2
v 118 12
v 119 9
v 120 15
v 121 12
v 122 3
v 123 3
v 124 13
v 125 8
